============================[ Problem Statistics ]=============================|                                                                             ||  Number of variables:          4242                                         ||  Number of clauses:            9958                                         ||  Parse time:                   0.35 s                                       ||                                                                             |============================[ Search Statistics ]==============================| Conflicts |          ORIGINAL         |          LEARNT          | Progress ||           |    Vars  Clauses Literals |    Limit  Clauses Lit/Cl |          |===============================================================================|       100 |    1591     6163   552734 |     2259      100     53 | 62.501 % |===============================================================================restarts              : 3conflicts             : 203            (377 /sec)decisions             : 471            (0.00 % random) (875 /sec)propagations          : 11659          (21671 /sec)conflict literals     : 14361          (95.14 % deleted)CPU time              : 0.538 sSATISFIABLE